c ---- [ banner ] ------------------------------------------------------------
c
c Kissat SAT Solver
c 
c Copyright (c) 2021-2024 Armin Biere University of Freiburg
c Copyright (c) 2019-2021 Armin Biere Johannes Kepler University Linz
c 
c Version 4.0.1 43f02cf3e992cb44653b35e5cb26f93281552ae0
c gcc (Ubuntu 13.2.0-23ubuntu4) 13.2.0 -W -Wall -O3 -DNDEBUG
c Thu Sep 12 12:27:46 CEST 2024 Linux abryzen9 6.8.0-41-generic x86_64
c
c ---- [ parsing ] -----------------------------------------------------------
c
c opened and reading DIMACS file:
c
c   /data/artifact/AMulet2.0_artifact/exp4/cnf_mfs_64/64_64_U_SP_DT_KS_GenMul_mfs.cnf
c
c parsed 'p cnf 34792 135859' header
c closing input after reading 2643188 bytes (3 MB)
c finished parsing after 0.03 seconds
c
c ---- [ options ] -----------------------------------------------------------
c
c --stable=0                       (different from default '1')
c
c ---- [ solving ] -----------------------------------------------------------
c
c  seconds switched rate     size/glue tier1  binary           remaining
c         MB reductions conflicts size  tier2     irredundant
c          level restarts redundant glue  trail           variables
c
c *  0.03 10 0 0 0  0 0   0   0 0.0 0 0 0 0 0% 27823 108034 34789 100%
c (  0.06 12 0 0 0  0 0   0   0 0.0 0 0 0 0 0% 27823 108034 34789 100%
c .  0.07 12 0 0 0  0 0   0   0 0.0 0 0 0 0 0% 27819 108034 34789 100%
c c  0.17 20 0 0 0  0 0   0   0 0.0 0 0 0 0 0% 34609 94454 31394 90%
c d  0.18 21 0 0 0  0 0   0   0 0.0 0 0 0 0 0% 27819 94454 31394 90%
c =  0.24 21 0 0 0  0 0   0   0 0.0 0 0 0 0 0% 28313 94454 31147 90%
c d  0.25 21 0 0 0  0 0   0   0 0.0 0 0 0 0 0% 27819 94454 31147 90%
c f  0.36 19 0 0 0  0 0   0   0 0.0 0 0 0 0 0% 30719 89826 32875 94%
c e  0.52 26 0 0 0  0 0   0   0 0.0 0 0 0 0 0% 9106 103650 21854 63%
c )  0.52 26 0 0 0  0 0   0   0 0.0 0 0 0 0 0% 9106 103650 21854 63%
c {  0.54 28 0 0 0  0 0   0   0 0.0 0 0 2 6 0% 9106 103650 21854 63%
c -  0.70 28 139 0 1 154 23 1001 731 2.3 11 5 2 7 14% 9140 103650 21854 63%
c -  1.14 28 230 0 2 372 35 2004 1485 4.4 25 6 2 8 23% 9159 103650 21854 63%
c c  1.37 23 238 0 2 474 39 2502 1944 4.2 24 6 2 9 23% 9173 103619 21846 63%
c d  1.37 23 238 0 2 474 39 2502 1943 4.2 24 6 2 9 23% 9157 103619 21846 63%
c u  1.38 23 238 0 2 474 39 2502 1604 4.2 24 6 2 9 23% 9167 103619 21846 63%
c v  1.40 23 238 0 2 474 39 2502 1185 4.2 24 6 2 9 23% 9167 103619 21846 63%
c w  1.41 23 238 0 2 474 39 2502 1183 4.2 24 6 2 9 23% 9167 103619 21846 63%
c x  1.43 24 238 0 2 474 39 2502 1183 4.2 24 6 2 9 23% 9167 103593 21846 63%
c =  1.49 24 238 0 2 474 39 2502 1183 4.2 24 6 2 9 23% 9533 103593 21663 62%
c
c  seconds   switched   rate       size/glue tier1    binary          remaining
c         MB  reductions conflicts       size  tier2     irredundant
c           level restarts    redundant    glue   trail          variables
c
c d  1.49 24 238 0 2 474 39 2502 1181 4.2 24 6 2 9 23% 9163 103593 21662 62%
c f  1.52 24 238 0 2 474 39 2502 1181 4.2 24 6 2 9 23% 9905 102202 22311 64%
c u  1.54 24 238 0 2 474 39 2502 1144 4.2 24 6 2 9 23% 9906 102202 22311 64%
c v  1.55 24 238 0 2 474 39 2502 1098 4.2 24 6 2 9 23% 9906 102202 22311 64%
c w  1.58 24 238 0 2 474 39 2502 1095 4.2 24 6 2 9 23% 9906 102202 22311 64%
c =  1.63 24 238 0 2 474 39 2502 1095 4.2 24 6 2 9 23% 10370 102202 22079 63%
c d  1.64 24 238 0 2 474 39 2502 1094 4.2 24 6 2 9 23% 9837 102202 22079 63%
c f  1.67 24 238 0 2 474 39 2502 1094 4.2 24 6 2 9 23% 10265 101560 22293 64%
c -  1.78 25 311 0 3 559 36 3418 1627 4.0 22 5 2 9 24% 10291 101560 22293 64%
c -  2.12 25 317 0 4 820 41 5150 2749 4.4 26 6 2 9 26% 10343 101560 22293 64%
c -  2.58 25 335 0 5 1126 40 7150 3951 5.1 34 7 2 8 26% 10382 101560 22293 64%
c c  2.71 25 330 0 5 1173 40 7706 4418 5.0 33 7 2 8 26% 10402 101481 22264 64%
c d  2.71 25 330 0 5 1173 40 7706 4416 5.0 33 7 2 8 26% 10342 101481 22263 64%
c u  2.73 25 330 0 5 1173 40 7706 3628 5.0 33 7 2 8 26% 10348 101481 22263 64%
c v  2.75 25 330 0 5 1173 40 7706 3092 5.0 33 7 2 8 26% 10348 101481 22263 64%
c w  2.80 27 330 0 5 1173 40 7706 3084 5.0 33 7 2 8 26% 10348 101481 22263 64%
c x  2.82 27 330 0 5 1173 40 7706 3084 5.0 33 7 2 8 26% 10348 100952 22263 64%
c =  2.93 27 330 0 5 1173 40 7706 3084 5.0 33 7 2 8 26% 11306 100952 21784 63%
c d  2.93 27 330 0 5 1173 40 7706 3057 5.0 33 7 2 8 26% 10225 100952 21784 63%
c t  2.94 27 330 0 5 1173 40 7706 3057 5.0 33 7 2 8 26% 10218 100952 21784 63%
c
c  seconds   switched    rate       size/glue tier1    binary          remaining
c         MB  reductions  conflicts       size  tier2      irredundant
c           level  restarts    redundant    glue   trail          variables
c
c f  2.98 27 330 0 5 1173 40 7706 3057 5.0 33 7 2 8 26% 12203 97973 22776 65%
c u  3.04 27 330 0 5 1173 40 7706 2862 5.0 33 7 2 8 26% 12203 97973 22776 65%
c v  3.05 27 330 0 5 1173 40 7706 2773 5.0 33 7 2 8 26% 12203 97973 22776 65%
c w  3.09 27 330 0 5 1173 40 7706 2757 5.0 33 7 2 8 26% 12203 97973 22776 65%
c x  3.12 27 330 0 5 1173 40 7706 2757 5.0 33 7 2 8 26% 12205 91955 22776 65%
c =  3.23 27 330 0 5 1173 40 7706 2757 5.0 33 7 2 8 26% 12743 91953 22507 65%
c d  3.24 27 330 0 5 1173 40 7706 2745 5.0 33 7 2 8 26% 12143 91953 22507 65%
c t  3.25 27 330 0 5 1173 40 7706 2745 5.0 33 7 2 8 26% 12122 91953 22507 65%
c f  3.29 27 330 0 5 1173 40 7706 2745 5.0 33 7 2 8 26% 12190 91851 22541 65%
c -  3.45 27 344 0 6 1232 37 9387 3778 4.9 31 6 2 8 25% 12219 91851 22541 65%
c o  3.64 27 335 0 6 1324 36 10224 4483 4.8 32 7 2 8 25% 12232 91851 22541 65%
c -  3.94 27 345 0 7 1499 37 11837 5168 4.7 33 7 2 8 25% 12275 91851 22541 65%
c s  4.12 27 339 0 7 1588 38 12507 5784 4.7 33 7 2 8 26% 12290 90854 22541 65%
c e  4.20 27 339 0 7 1588 38 12507 5784 4.7 33 7 2 8 26% 10374 92066 20971 60%
c s  4.21 27 339 0 7 1588 38 12507 5784 4.7 33 7 2 8 26% 10386 90884 20971 60%
c e  4.22 27 339 0 7 1588 38 12507 5784 4.7 33 7 2 8 26% 10378 90890 20966 60%
c ^  4.22 27 339 0 7 1588 38 12507 5784 4.7 33 7 2 8 26% 10378 90890 20966 60%
c -  4.52 27 339 0 8 1722 36 14482 6124 4.7 33 7 2 8 26% 10397 90890 20966 60%
c d  4.72 27 332 0 8 1832 36 15783 7230 4.7 33 7 2 8 26% 10254 90890 20859 60%
c u  4.75 27 332 0 8 1832 36 15783 5857 4.7 33 7 2 8 26% 10269 90890 20859 60%
c
c  seconds   switched    rate        size/glue tier1    binary          remaining
c         MB  reductions   conflicts       size  tier2      irredundant
c           level  restarts     redundant    glue   trail          variables
c
c v  4.78 27 332 0 8 1832 36 15783 5027 4.7 33 7 2 8 26% 10272 90890 20859 60%
c w  4.83 27 332 0 8 1832 36 15783 5023 4.7 33 7 2 8 26% 10273 90890 20859 60%
c x  4.85 27 332 0 8 1832 36 15783 5023 4.7 33 7 2 8 26% 10274 90146 20859 60%
c =  5.00 27 332 0 8 1832 36 15783 5023 4.7 33 7 2 8 26% 12390 90146 19801 57%
c d  5.01 27 332 0 8 1832 36 15783 4892 4.7 33 7 2 8 26% 9845 90146 19801 57%
c t  5.02 27 332 0 8 1832 36 15783 4892 4.7 33 7 2 8 26% 9833 90146 19801 57%
c f  5.06 27 332 0 8 1832 36 15783 4892 4.7 33 7 2 8 26% 9835 90142 19802 57%
c u  5.12 27 332 0 8 1832 36 15783 4522 4.7 33 7 2 8 26% 9837 90142 19802 57%
c v  5.14 27 332 0 8 1832 36 15783 4391 4.7 33 7 2 8 26% 9838 90142 19802 57%
c w  5.20 27 332 0 8 1832 36 15783 4366 4.7 33 7 2 8 26% 9838 90142 19802 57%
c x  5.22 27 332 0 8 1832 36 15783 4363 4.7 33 7 2 8 26% 9838 89646 19802 57%
c =  5.36 27 332 0 8 1832 36 15783 4363 4.7 33 7 2 8 26% 11314 89646 19064 55%
c d  5.37 27 332 0 8 1832 36 15783 4318 4.7 33 7 2 8 26% 9596 89646 19064 55%
c t  5.38 27 332 0 8 1832 36 15783 4318 4.7 33 7 2 8 26% 9595 89646 19064 55%
c -  5.55 27 333 0 9 1892 35 17313 5030 4.6 31 7 2 8 26% 9613 89646 19064 55%
c o  6.04 27 322 0 9 2196 35 20227 7554 4.4 32 7 2 8 26% 9671 89646 19064 55%
c -  6.08 27 322 0 10 2221 35 20313 6726 4.5 32 7 2 8 26% 9671 89646 19064 55%
c -  6.55 27 318 0 11 2452 34 23477 8419 4.4 31 7 2 8 27% 9730 89646 19064 55%
c s  6.76 27 318 0 11 2560 33 25007 9835 4.3 30 7 2 8 27% 9744 87844 19064 55%
c e  6.86 27 318 0 11 2560 33 25007 9835 4.3 30 7 2 8 27% 8681 90890 16578 48%
c
c  seconds   switched     rate        size/glue tier1    binary         remaining
c         MB   reductions   conflicts       size  tier2     irredundant
c           level   restarts     redundant    glue   trail         variables
c
c s  6.87 27 318 0 11 2560 33 25007 9835 4.3 30 7 2 8 27% 8723 86809 16578 48%
c e  6.90 27 318 0 11 2560 33 25007 9835 4.3 30 7 2 8 27% 8683 86871 16547 48%
c ^  6.90 27 318 0 11 2560 33 25007 9835 4.3 30 7 2 8 27% 8683 86871 16547 48%
c -  7.11 27 303 0 12 2651 32 26794 8208 4.2 29 7 2 7 27% 8719 86871 16547 48%
c d  7.12 27 303 0 12 2651 32 26909 8277 4.2 29 7 2 7 27% 8555 86871 16441 47%
c u  7.15 27 303 0 12 2651 32 26909 6869 4.2 29 7 2 7 27% 8561 86871 16441 47%
c v  7.18 27 303 0 12 2651 32 26909 5866 4.2 29 7 2 7 27% 8563 86871 16441 47%
c w  7.18 27 303 0 12 2651 32 26909 5866 4.2 29 7 2 7 27% 8563 86871 16441 47%
c x  7.25 27 303 0 12 2651 32 26909 5865 4.2 29 7 2 7 27% 8563 83906 16441 47%
c =  7.42 27 303 0 12 2651 32 26909 5865 4.2 29 7 2 7 27% 10827 83880 15308 44%
c d  7.43 27 303 0 12 2651 32 26909 5628 4.2 29 7 2 7 27% 8434 83880 15308 44%
c t  7.44 27 303 0 12 2651 32 26909 5628 4.2 29 7 2 7 27% 8377 83880 15308 44%
c f  7.50 27 303 0 12 2651 32 26909 5628 4.2 29 7 2 7 27% 8375 83841 15319 44%
c u  7.52 27 303 0 12 2651 32 26909 5210 4.2 29 7 2 7 27% 8375 83841 15319 44%
c v  7.54 27 303 0 12 2651 32 26909 5060 4.2 29 7 2 7 27% 8375 83841 15319 44%
c w  7.54 27 303 0 12 2651 32 26909 5059 4.2 29 7 2 7 27% 8375 83841 15319 44%
c x  7.62 27 303 0 12 2651 32 26909 5055 4.2 29 7 2 7 27% 8375 76205 15319 44%
c =  7.77 27 303 0 12 2651 32 26909 5055 4.2 29 7 2 7 27% 8487 76203 15263 44%
c d  7.77 27 303 0 12 2651 32 26909 5047 4.2 29 7 2 7 27% 8371 76203 15263 44%
c -  8.06 27 279 0 13 2777 29 30258 6955 3.9 27 7 2 8 27% 8404 76200 15263 44%
c
c  seconds   switched     rate        size/glue tier1    binary         remaining
c         MB   reductions   conflicts       size  tier2     irredundant
c           level   restarts     redundant    glue   trail         variables
c
c -  8.42 27 258 0 14 3013 28 33863 8987 3.7 26 7 2 8 27% 8447 76197 15263 44%
c -  8.86 27 256 0 15 3291 27 37605 10710 3.6 25 7 2 7 27% 8501 76197 15263 44%
c o  9.10 27 257 0 15 3423 26 40228 12983 3.6 25 7 2 7 27% 8529 76196 15263 44%
c c  9.29 27 255 0 15 3513 26 41249 13876 3.6 25 7 2 7 27% 8622 75738 15175 44%
c d  9.30 27 255 0 15 3513 26 41249 13644 3.6 25 7 2 7 27% 8359 75738 15117 43%
c u  9.33 27 255 0 15 3513 26 41249 11592 3.6 25 7 2 7 27% 8378 75738 15117 43%
c v  9.37 27 255 0 15 3513 26 41249 10783 3.6 25 7 2 7 27% 8378 75738 15117 43%
c w  9.40 27 255 0 15 3513 26 41249 10783 3.6 25 7 2 7 27% 8378 75738 15117 43%
c x  9.43 27 255 0 15 3513 26 41249 10783 3.6 25 7 2 7 27% 8378 74941 15117 43%
c =  9.60 27 255 0 15 3513 26 41249 10783 3.6 25 7 2 7 27% 10136 74941 14238 41%
c d  9.61 27 255 0 15 3513 26 41249 10318 3.6 25 7 2 7 27% 8247 74941 14238 41%
c t  9.62 27 255 0 15 3513 26 41249 10318 3.6 25 7 2 7 27% 8243 74941 14238 41%
c u  9.68 27 255 0 15 3513 26 41249 9514 3.6 25 7 2 7 27% 8244 74941 14238 41%
c v  9.71 27 255 0 15 3513 26 41249 8662 3.6 25 7 2 7 27% 8244 74941 14238 41%
c w  9.76 27 255 0 15 3513 26 41249 8658 3.6 25 7 2 7 27% 8244 74941 14238 41%
c x  9.81 28 255 0 15 3513 26 41249 8657 3.6 25 7 2 7 27% 8244 70870 14238 41%
c -  9.98 28 258 0 16 3515 26 41477 7722 3.6 25 7 2 7 27% 8244 70870 14238 41%
c - 10.29 28 245 0 17 3707 25 45477 9905 3.4 23 7 2 7 26% 8262 70868 14238 41%
c - 10.91 28 235 0 18 4202 25 49600 12154 3.4 23 7 2 7 27% 8272 70868 14238 41%
c s 11.25 28 232 0 18 4478 25 52108 14342 3.4 24 7 2 7 27% 8287 69595 14238 41%
c
c  seconds   switched     rate         size/glue tier1    binary         remaining
c         MB   reductions   conflicts        size  tier2     irredundant
c           level   restarts      redundant    glue   trail         variables
c
c e 11.32 28 232 0 18 4478 25 52108 14342 3.4 24 7 2 7 27% 7350 71331 13301 38%
c s 11.33 28 232 0 18 4478 25 52108 14342 3.4 24 7 2 7 27% 7356 70912 13301 38%
c e 11.34 28 232 0 18 4478 25 52108 14342 3.4 24 7 2 7 27% 7324 70972 13276 38%
c ^ 11.34 28 232 0 18 4478 25 52108 14342 3.4 24 7 2 7 27% 7324 70972 13276 38%
c - 11.53 28 228 0 19 4642 25 53845 12435 3.4 23 7 2 7 27% 7327 70971 13276 38%
c - 12.10 28 223 0 20 5032 25 58203 14288 3.3 23 7 2 6 27% 7371 70969 13276 38%
c c 12.16 28 222 0 20 5062 25 58912 14805 3.3 23 7 2 6 26% 7433 70705 13231 38%
c d 12.17 28 222 0 20 5062 25 58912 14645 3.3 23 7 2 6 26% 7343 70705 13231 38%
c u 12.21 28 222 0 20 5062 25 58912 12371 3.3 23 7 2 6 26% 7352 70705 13231 38%
c v 12.25 28 222 0 20 5062 25 58912 10879 3.3 23 7 2 6 26% 7353 70705 13231 38%
c w 12.28 28 222 0 20 5062 25 58912 10833 3.3 23 7 2 6 26% 7353 70705 13231 38%
c x 12.34 28 222 0 20 5062 25 58912 10832 3.3 23 7 2 6 26% 7353 70469 13231 38%
c d 12.35 28 222 0 20 5062 25 58912 10830 3.3 23 7 2 6 26% 7351 70469 13230 38%
c t 12.36 28 222 0 20 5062 25 58912 10830 3.3 23 7 2 6 26% 7340 70469 13230 38%
c f 12.39 28 222 0 20 5062 25 58912 10830 3.3 23 7 2 6 26% 7344 70460 13231 38%
c c 12.42 28 222 0 20 5062 25 58912 10830 3.3 23 7 2 6 26% 7345 70452 13230 38%
c d 12.42 28 222 0 20 5062 25 58912 10830 3.3 23 7 2 6 26% 7343 70452 13230 38%
c u 12.46 28 222 0 20 5062 25 58912 10458 3.3 23 7 2 6 26% 7345 70452 13230 38%
c v 12.48 28 222 0 20 5062 25 58912 10203 3.3 23 7 2 6 26% 7346 70452 13230 38%
c w 12.50 28 222 0 20 5062 25 58912 10193 3.3 23 7 2 6 26% 7346 70452 13230 38%
c
c  seconds   switched     rate         size/glue tier1    binary         remaining
c         MB   reductions   conflicts        size  tier2     irredundant
c           level   restarts      redundant    glue   trail         variables
c
c d 12.74 28 222 0 20 5062 25 58912 10191 3.3 23 7 2 6 26% 7342 70452 13228 38%
c - 13.18 28 214 0 21 5425 24 62675 12102 3.2 23 7 2 6 26% 7361 70452 13228 38%
c - 13.60 28 204 0 22 5723 23 67258 14346 3.1 22 7 2 6 26% 7438 70452 13228 38%
c o 14.01 28 200 0 22 6036 23 70230 17139 3.1 22 7 2 6 26% 7445 70452 13228 38%
c - 14.24 28 198 0 23 6213 23 71948 16415 3.1 22 7 2 6 26% 7450 70452 13228 38%
c - 14.96 28 196 0 24 6749 23 76743 18131 3.1 22 7 2 6 26% 7489 70452 13228 38%
c d 15.35 28 194 0 24 7008 23 80010 20799 3.0 22 7 2 6 26% 7406 70452 13167 38%
c u 15.41 28 194 0 24 7008 23 80010 17471 3.0 22 7 2 6 26% 7448 70452 13167 38%
c v 15.47 28 194 0 24 7008 23 80010 15762 3.0 22 7 2 6 26% 7454 70452 13167 38%
c w 15.52 28 194 0 24 7008 23 80010 15761 3.0 22 7 2 6 26% 7454 70452 13167 38%
c x 15.58 28 194 0 24 7008 23 80010 15751 3.0 22 7 2 6 26% 7454 69820 13167 38%
c d 15.59 28 194 0 24 7008 23 80010 15701 3.0 22 7 2 6 26% 7410 69820 13145 38%
c c 15.64 28 194 0 24 7008 23 80010 15688 3.0 22 7 2 6 26% 7442 69671 13127 38%
c d 15.64 28 194 0 24 7008 23 80010 15660 3.0 22 7 2 6 26% 7406 69671 13127 38%
c u 15.69 28 194 0 24 7008 23 80010 15043 3.0 22 7 2 6 26% 7411 69671 13127 38%
c v 15.73 28 194 0 24 7008 23 80010 14386 3.0 22 7 2 6 26% 7411 69671 13127 38%
c w 15.82 28 194 0 24 7008 23 80010 14346 3.0 22 7 2 6 26% 7411 69671 13127 38%
c x 15.89 28 194 0 24 7008 23 80010 14345 3.0 22 7 2 6 26% 7411 68941 13127 38%
c d 15.90 28 194 0 24 7008 23 80010 14343 3.0 22 7 2 6 26% 7407 68941 13125 38%
c - 16.18 28 192 0 25 7170 23 81641 14040 3.0 22 7 2 6 26% 7411 68941 13125 38%
c
c  seconds   switched     rate         size/glue tier1    binary         remaining
c         MB   reductions   conflicts        size  tier2     irredundant
c           level   restarts      redundant    glue   trail         variables
c
c - 16.84 28 190 0 26 7599 23 86641 16567 2.9 21 7 2 6 27% 7419 68941 13125 38%
c - 17.46 28 189 0 27 8020 22 91740 18752 2.9 21 7 2 6 26% 7487 68941 13125 38%
c s 18.25 28 186 0 27 8632 23 95846 22524 2.9 22 7 2 6 27% 7513 68937 13125 38%
c e 18.33 28 186 0 27 8632 23 95846 22524 2.9 22 7 2 6 27% 5200 75077 11840 34%
c 2 18.33 28 186 0 27 8632 23 95846 22524 2.9 22 7 2 6 27% 5196 75077 11840 34%
c s 18.34 28 186 0 27 8632 23 95846 22524 2.9 22 7 2 6 27% 5196 74899 11840 34%
c e 18.35 28 186 0 27 8632 23 95846 22524 2.9 22 7 2 6 27% 5196 74971 11809 34%
c ^ 18.35 28 186 0 27 8632 23 95846 22524 2.9 22 7 2 6 27% 5196 74971 11809 34%
c - 18.52 28 185 0 28 8760 23 96936 15178 2.9 22 7 1 6 27% 5198 74971 11809 34%
c - 19.34 28 181 0 29 9415 23 102227 16974 2.9 22 7 1 6 27% 5221 74968 11809 34%
c c 19.76 28 179 0 29 9707 23 104671 19106 2.9 22 8 1 6 27% 5315 74576 11744 34%
c d 19.77 28 179 0 29 9707 23 104671 18920 2.9 22 8 1 6 27% 5185 74576 11744 34%
c u 19.80 28 179 0 29 9707 23 104671 16892 2.9 22 8 1 6 27% 5211 74576 11744 34%
c v 19.87 28 179 0 29 9707 23 104671 13878 2.9 22 8 1 6 27% 5217 74576 11744 34%
c w 19.98 28 179 0 29 9707 23 104671 13839 2.9 22 8 1 6 27% 5217 74576 11744 34%
c x 20.07 28 179 0 29 9707 23 104671 13838 2.9 22 8 1 6 27% 5217 74477 11744 34%
c = 20.25 28 179 0 29 9707 23 104671 13838 2.9 22 8 1 6 27% 5385 74477 11660 34%
c d 20.25 28 179 0 29 9707 23 104671 13674 2.9 22 8 1 6 27% 5173 74477 11648 33%
c t 20.26 28 179 0 29 9707 23 104671 13674 2.9 22 8 1 6 27% 5163 74477 11648 33%
c c 20.36 28 179 0 29 9707 23 104671 13666 2.9 22 8 1 6 27% 5172 74421 11642 33%
c
c  seconds   switched     rate          size/glue tier1    binary         remaining
c         MB   reductions   conflicts         size  tier2     irredundant
c           level   restarts       redundant    glue   trail         variables
c
c d 20.36 28 179 0 29 9707 23 104671 13654 2.9 22 8 1 6 27% 5160 74421 11642 33%
c u 20.39 28 179 0 29 9707 23 104671 13089 2.9 22 8 1 6 27% 5166 74421 11642 33%
c v 20.43 28 179 0 29 9707 23 104671 12497 2.9 22 8 1 6 27% 5168 74421 11642 33%
c w 20.56 28 179 0 29 9707 23 104671 12340 2.9 22 8 1 6 27% 5168 74421 11642 33%
c d 20.57 28 179 0 29 9707 23 104671 12337 2.9 22 8 1 6 27% 5162 74421 11639 33%
c - 20.99 28 176 0 30 9964 23 107612 12716 2.9 22 8 1 5 27% 5175 74420 11639 33%
c o 21.35 28 174 0 30 10173 23 110232 15167 2.9 22 8 1 5 27% 5180 74420 11639 33%
c - 21.53 28 173 0 31 10298 22 113090 15031 2.8 21 8 1 5 27% 5206 74418 11639 33%
c - 22.20 28 174 0 32 10716 22 118657 16717 2.8 21 8 1 5 27% 5263 74413 11639 33%
c - 22.83 28 171 0 33 11104 21 124313 18275 2.8 21 8 1 5 27% 5317 74413 11639 33%
c - 24.03 28 169 0 34 11893 22 130057 19827 2.9 22 8 1 5 27% 5345 74413 11639 33%
c d 24.44 28 169 0 34 12146 22 132947 22157 2.9 22 8 1 5 27% 5205 74413 11549 33%
c u 24.48 28 169 0 34 12146 22 132947 19680 2.9 22 8 1 5 27% 5226 74413 11549 33%
c v 24.57 28 169 0 34 12146 22 132947 16285 2.9 22 8 1 5 27% 5232 74413 11549 33%
c w 24.69 28 169 0 34 12146 22 132947 16262 2.9 22 8 1 5 27% 5232 74413 11549 33%
c x 24.76 28 169 0 34 12146 22 132947 16262 2.9 22 8 1 5 27% 5232 74399 11549 33%
c = 25.18 28 169 0 34 12146 22 132947 16262 2.9 22 8 1 5 27% 5616 74399 11357 33%
c d 25.19 28 169 0 34 12146 22 132947 16006 2.9 22 8 1 5 27% 5131 74399 11357 33%
c t 25.19 28 169 0 34 12146 22 132947 16006 2.9 22 8 1 5 27% 5129 74399 11357 33%
c u 25.28 28 169 0 34 12146 22 132947 15358 2.9 22 8 1 5 27% 5130 74399 11357 33%
c
c  seconds   switched      rate          size/glue tier1    binary         remaining
c         MB   reductions    conflicts         size  tier2     irredundant
c           level   restarts        redundant    glue   trail         variables
c
c v 25.33 28 169 0 34 12146 22 132947 14708 2.9 22 8 1 5 27% 5131 74399 11357 33%
c w 25.49 28 169 0 34 12146 22 132947 14171 2.9 22 8 1 5 27% 5131 74399 11357 33%
c = 25.92 28 169 0 34 12146 22 132947 14171 2.9 22 8 1 5 27% 5261 74399 11292 32%
c d 25.93 28 169 0 34 12146 22 132947 14092 2.9 22 8 1 5 27% 5122 74399 11292 32%
c - 26.40 28 168 0 35 12417 22 135888 14269 2.9 22 8 1 5 27% 5127 74399 11292 32%
c - 27.21 28 168 0 36 12884 22 141804 16927 2.9 22 8 1 5 27% 5143 74399 11292 32%
c - 28.28 28 167 0 37 13597 22 147805 19107 2.9 23 8 1 5 27% 5153 74399 11292 32%
c - 29.25 28 166 0 38 14202 22 153888 20664 2.9 24 8 1 5 28% 5190 74399 11292 32%
c s 29.96 28 164 0 38 14636 22 157974 24502 2.9 24 8 1 5 28% 5199 72437 11292 32%
c e 30.06 28 164 0 38 14636 22 157974 24502 2.9 24 8 1 5 28% 2857 84020 9776 28%
c s 30.08 28 164 0 38 14636 22 157974 24502 2.9 24 8 1 5 28% 2859 83317 9776 28%
c e 30.10 28 164 0 38 14636 22 157974 24502 2.9 24 8 1 5 28% 2852 83417 9750 28%
c ^ 30.10 28 164 0 38 14636 22 157974 24502 2.9 24 8 1 5 28% 2852 83417 9750 28%
c - 30.16 28 163 0 39 14663 21 160053 16521 2.9 24 8 1 5 27% 2864 83417 9750 28%
c o 30.20 28 163 0 39 14694 21 160232 16698 2.9 24 8 1 5 27% 2864 83417 9750 28%
c d 30.91 28 162 0 39 15210 21 164962 21061 2.9 24 8 1 5 28% 2863 83413 9745 28%
c u 30.96 28 162 0 39 15210 21 164962 18662 2.9 24 8 1 5 28% 2870 83413 9745 28%
c v 31.02 28 162 0 39 15210 21 164962 15524 2.9 24 8 1 5 28% 2879 83413 9745 28%
c w 31.30 28 162 0 39 15210 21 164962 15178 2.9 24 8 1 5 28% 2879 83413 9745 28%
c = 31.83 28 162 0 39 15210 21 164962 15178 2.9 24 8 1 5 28% 2935 83413 9717 28%
c
c  seconds   switched      rate          size/glue tier1    binary        remaining
c         MB   reductions    conflicts         size  tier2     irredundant
c           level   restarts        redundant    glue   trail        variables
c
c d 31.83 28 162 0 39 15210 21 164962 15071 2.9 24 8 1 5 28% 2862 83413 9717 28%
c t 31.84 28 162 0 39 15210 21 164962 15071 2.9 24 8 1 5 28% 2852 83413 9717 28%
c f 31.93 28 162 0 39 15210 21 164962 15071 2.9 24 8 1 5 28% 2864 82826 9747 28%
c u 31.97 28 162 0 39 15210 21 164962 14518 2.9 24 8 1 5 28% 2867 82826 9747 28%
c v 32.01 28 162 0 39 15210 21 164962 13866 2.9 24 8 1 5 28% 2870 82826 9747 28%
c w 32.22 28 162 0 39 15210 21 164962 13413 2.9 24 8 1 5 28% 2871 82826 9747 28%
c x 32.32 28 162 0 39 15210 21 164962 13401 2.9 24 8 1 5 28% 2871 81461 9747 28%
c d 32.85 28 162 0 39 15210 21 164962 13399 2.9 24 8 1 5 28% 2869 81461 9746 28%
c t 32.86 28 162 0 39 15210 21 164962 13399 2.9 24 8 1 5 28% 2867 81461 9746 28%
c - 33.00 28 161 0 40 15291 21 166297 12346 2.9 24 8 1 5 28% 2873 81461 9746 28%
c - 33.74 28 159 0 41 15777 21 172621 15256 2.8 23 8 1 5 28% 2894 81460 9746 28%
c i 34.17 28 158 0 41 16082 21 177409 19286 2.8 23 8 1 5 27% 2930 81459 9745 28%
c - 34.45 28 158 0 42 16272 21 179025 17734 2.8 23 8 1 5 28% 2925 81459 9745 28%
c - 35.19 28 155 0 43 16714 20 185507 19648 2.8 23 8 1 5 28% 2940 81454 9745 28%
c i 35.57 28 153 0 43 16958 20 189160 22952 2.8 23 8 1 5 28% 2958 81454 9744 28%
c - 35.90 28 152 0 44 17143 20 192064 21140 2.8 23 8 1 5 28% 2968 81454 9744 28%
c - 36.79 28 149 0 45 17686 20 198697 22476 2.7 23 8 1 5 28% 2980 81452 9744 28%
c c 37.02 28 149 0 45 17821 19 200773 24337 2.7 23 8 1 5 28% 3004 81325 9716 28%
c d 37.03 28 149 0 45 17821 19 200773 24213 2.7 23 8 1 5 28% 2954 81319 9716 28%
c d 37.03 28 149 0 45 17821 19 200773 24206 2.7 23 8 1 5 28% 2948 81319 9713 28%
c
c  seconds   switched      rate          size/glue tier1    binary        remaining
c         MB   reductions    conflicts         size  tier2     irredundant
c           level   restarts        redundant    glue   trail        variables
c
c u 37.08 28 149 0 45 17821 19 200773 21594 2.7 23 8 1 5 28% 2963 81319 9713 28%
c v 37.17 28 149 0 45 17821 19 200773 17308 2.7 23 8 1 5 28% 2967 81319 9713 28%
c w 37.27 28 149 0 45 17821 19 200773 16805 2.7 23 8 1 5 28% 2967 81319 9713 28%
c d 37.27 28 149 0 45 17821 19 200773 16802 2.7 23 8 1 5 28% 2961 81319 9710 28%
c t 37.28 28 149 0 45 17821 19 200773 16802 2.7 23 8 1 5 28% 2956 81319 9710 28%
c u 37.34 28 149 0 45 17821 19 200773 16287 2.7 23 8 1 5 28% 2961 81319 9710 28%
c v 37.39 28 149 0 45 17821 19 200773 15577 2.7 23 8 1 5 28% 2962 81319 9710 28%
c w 37.47 28 149 0 45 17821 19 200773 15434 2.7 23 8 1 5 28% 2962 81319 9710 28%
c x 37.57 28 149 0 45 17821 19 200773 15433 2.7 23 8 1 5 28% 2962 81285 9710 28%
c = 38.04 28 149 0 45 17821 19 200773 15433 2.7 23 8 1 5 28% 2972 81285 9705 28%
c d 38.05 28 149 0 45 17821 19 200773 15426 2.7 23 8 1 5 28% 2961 81285 9705 28%
c t 38.05 28 149 0 45 17821 19 200773 15426 2.7 23 8 1 5 28% 2960 81285 9705 28%
c i 38.34 28 148 0 45 17980 19 203627 17984 2.7 23 8 1 5 28% 2972 81284 9704 28%
c i 38.47 28 147 0 45 18059 19 204874 19068 2.7 23 8 1 5 28% 2985 81284 9700 28%
c - 38.54 28 147 0 46 18101 19 205405 16306 2.7 23 8 1 5 28% 2975 81284 9700 28%
c i 38.64 28 147 0 46 18155 19 206355 17205 2.7 23 8 1 5 28% 2977 81284 9699 28%
c i 38.95 28 145 0 46 18323 19 209484 20102 2.7 22 8 1 5 27% 2991 81284 9698 28%
c i 39.01 28 144 0 46 18357 19 210413 20975 2.7 22 8 1 5 27% 2996 81284 9697 28%
c i 39.06 28 144 0 46 18391 19 210917 21409 2.7 22 8 1 5 27% 2998 81284 9695 28%
c - 39.23 28 143 0 47 18484 19 212187 18812 2.7 22 8 1 5 27% 3006 81284 9695 28%
c
c  seconds   switched      rate          size/glue tier1    binary        remaining
c         MB   reductions    conflicts         size  tier2     irredundant
c           level   restarts        redundant    glue   trail        variables
c
c i 39.33 28 142 0 47 18542 18 213682 20143 2.7 22 8 1 5 27% 3009 81283 9694 28%
c i 39.55 28 141 0 47 18682 18 216355 22456 2.6 22 8 1 5 27% 3027 81282 9679 28%
c i 39.72 28 141 0 47 18785 18 217825 23795 2.6 22 8 1 5 27% 3034 81282 9678 28%
c i 39.80 28 140 0 47 18829 18 218572 24450 2.6 22 8 1 5 27% 3041 81282 9671 28%
c - 39.85 28 140 0 48 18872 18 219042 19909 2.6 22 8 1 5 27% 3061 81282 9671 28%
c i 39.85 28 140 0 48 18872 18 219070 19922 2.6 22 8 1 5 27% 3062 81282 9669 28%
c i 39.89 28 139 0 48 18926 18 219609 20410 2.6 22 8 1 5 27% 3069 81282 9667 28%
c o 39.93 28 139 0 48 18957 18 220258 20965 2.6 22 8 1 5 27% 3077 81282 9667 28%
c i 39.98 28 138 0 48 18982 18 221371 21941 2.6 22 8 1 5 27% 3085 81282 9666 28%
c i 40.01 28 138 0 48 19002 18 221984 22477 2.6 22 8 1 5 27% 3093 81282 9665 28%
c i 40.02 28 138 0 48 19019 18 222156 22597 2.6 22 8 1 5 27% 3099 81282 9664 28%
c i 40.03 28 138 0 48 19045 18 222439 22851 2.6 22 8 1 5 27% 3102 81282 9663 28%
c i 40.05 28 137 0 48 19060 18 222891 23235 2.6 22 8 1 5 27% 3112 81282 9662 28%
c i 40.11 28 136 0 48 19161 17 224562 24668 2.6 22 8 1 5 26% 3118 81281 9661 28%
c i 40.11 28 135 0 48 19164 17 225080 25060 2.6 22 8 1 5 26% 3125 81281 9660 28%
c - 40.15 28 135 0 49 19212 17 225970 19952 2.6 22 8 1 5 26% 3103 81278 9660 28%
c i 40.16 28 134 0 49 19231 17 226522 20366 2.6 22 8 1 5 26% 3110 81276 9659 28%
c i 40.16 28 134 0 49 19240 17 226795 20569 2.6 22 8 1 5 26% 3116 81270 9658 28%
c i 40.19 28 133 0 49 19277 17 227618 21247 2.6 22 8 1 5 26% 3125 81266 9657 28%
c i 40.19 28 133 0 49 19294 17 227784 21386 2.6 22 8 1 5 26% 3126 81266 9656 28%
c
c  seconds   switched      rate          size/glue tier1    binary        remaining
c         MB   reductions    conflicts         size  tier2     irredundant
c           level   restarts        redundant    glue   trail        variables
c
c i 40.20 28 133 0 49 19302 17 227996 21534 2.6 22 8 1 5 26% 3132 81266 9655 28%
c i 40.20 28 133 0 49 19306 17 228072 21604 2.6 22 8 1 5 26% 3136 81266 9654 28%
c i 40.20 28 133 0 49 19306 17 228174 21644 2.6 22 8 1 5 26% 3141 81266 9653 28%
c i 40.21 28 132 0 49 19306 17 228865 22171 2.6 21 8 1 5 25% 3148 81266 9652 28%
c i 40.21 28 132 0 49 19306 17 228931 22194 2.6 21 8 1 5 25% 3156 81265 9651 28%
c i 40.21 28 132 0 49 19306 17 228947 22197 2.6 21 8 1 5 25% 3159 81265 9649 28%
c i 40.21 28 132 0 49 19306 17 228956 22198 2.6 21 8 1 5 25% 3162 81265 9646 28%
c i 40.21 28 132 0 49 19306 17 228963 22198 2.6 21 8 1 5 25% 3165 81265 9640 28%
c } 40.21 28 132 0 49 19306 17 228965 22198 2.6 21 8 1 5 25% 3165 81265 9629 28%
c 0 40.21 28 132 0 49 19306 17 228965 22198 2.6 21 8 1 5 25% 3165 81265 9629 28%
c
c ---- [ result ] ------------------------------------------------------------
c
s UNSATISFIABLE
c
c ---- [ profiling ] ---------------------------------------------------------
c
c          29.38   73.06 %  search
c          29.38   73.06 %  focused
c          10.29   25.59 %  simplify
c           9.95   24.75 %  probe
c           4.10   10.19 %  sweep
c           4.09   10.18 %  vivify
c           0.65    1.62 %  factor
c           0.63    1.57 %  eliminate
c           0.54    1.34 %  congruence
c           0.46    1.14 %  preprocess
c           0.43    1.07 %  substitute
c           0.20    0.49 %  reduce
c           0.16    0.39 %  fastel
c           0.11    0.27 %  subsume
c           0.10    0.26 %  transitive
c           0.05    0.12 %  lucky
c           0.04    0.10 %  backbone
c           0.03    0.09 %  parse
c =============================================
c          40.21  100.00 %  total
c
c ---- [ statistics ] --------------------------------------------------------
c
c chronological:                         5712                2 %  conflicts
c conflicts:                           228965             5694.29 per second
c congruent:                             3683               11 %  variables
c decisions:                          4302442               18.79 per conflict
c eliminated:                           18933               54 %  variables
c factored:                              3660               11 %  variables
c fast_eliminated:                      11021               58 %  eliminated
c fast_strengthened:                        2                0 %  per strengthened
c fast_subsumed:                           52                0 %  per subsumed
c iterations:                              34                0 %  variables
c propagations:                     180514840          4489346    per second
c reductions:                              49             4673    interval
c reordered:                                7            32709    interval
c restarts:                             19306               12    interval
c strengthened:                          4658                0 %  checks
c substituted:                           9808               28 %  variables
c subsumed:                             12590                0 %  checks
c switched:                                 0                0    interval
c vivified:                             95310               14 %  checks
c
c ---- [ glue usage ] --------------------------------------------------------
c
c focused glue 1 used 374599 clauses 58.70% accumulated 58.70% tier1
c focused glue 2 used 122893 clauses 19.26% accumulated 77.95%
c focused glue 3 used  41599 clauses  6.52% accumulated 84.47%
c focused glue 4 used  24575 clauses  3.85% accumulated 88.32%
c focused glue 5 used  15789 clauses  2.47% accumulated 90.79% tier2
c
c ---- [ resources ] ---------------------------------------------------------
c
c maximum-resident-set-size:         29671424 bytes         28 MB
c process-time:                            40s              40.21 seconds
c
c ---- [ shutting down ] -----------------------------------------------------
c
c exit 20
